decision_x1=[0,2];
decision_x2=[0,2];
decision_x3=[0,2];
decision_x4=[0,2];
decision_x5=[0,2];
decision_x6=[0,2];
decision_x7=[0,2];
decision_x8=[0,2];
decision_x9=[0,2];
decision_x10=[0,2];
decision_x11=[0,2];
decision_x12=[0,2];
decision_x13=[0,2];
decision_x14=[0,2];
decision_x15=[0,2];
random_y1=[0,2];
random_y2=[0,2];
random_y3=[0,2];
constraint_x2_x1=[
0,1,5|
0,2,4|
1,0,2.5|
1,2,4.6|
2,0,3.4|
2,1,3.6|
];
constraint_x5_x3=[
0,1,2.9|
0,2,1.6|
1,0,7.4|
1,2,7.1|
2,0,2.1|
2,1,1.6|
];
constraint_x5_x4=[
0,1,2.7|
0,2,1.4|
1,0,5.7|
1,2,1.4|
2,0,6.8|
2,1,0.92|
];
constraint_x6_x1=[
0,1,1.9|
0,2,1.2|
1,0,6.9|
1,2,4.6|
2,0,9.1|
2,1,5.3|
];
constraint_x6_x2=[
0,1,0.87|
0,2,6.6|
1,0,1.1|
1,2,7.4|
2,0,3.9|
2,1,6.2|
];
constraint_x6_x3=[
0,1,0.79|
0,2,5.8|
1,0,0.5|
1,2,1.1|
2,0,1.3|
2,1,1.3|
];
constraint_x6_x4=[
0,1,5.9|
0,2,6.4|
1,0,4.5|
1,2,2.3|
2,0,9.9|
2,1,9|
];
constraint_x7_x3=[
0,1,8.8|
0,2,8|
1,0,5.3|
1,2,2.1|
2,0,9|
2,1,7.5|
];
constraint_x7_x5=[
0,1,6.3|
0,2,5.4|
1,0,4.7|
1,2,8.2|
2,0,0.81|
2,1,0.66|
];
constraint_x8_x3=[
0,1,5.1|
0,2,2.4|
1,0,2|
1,2,1.2|
2,0,9.3|
2,1,7|
];
constraint_x8_x4=[
0,1,3|
0,2,7.2|
1,0,8.2|
1,2,1.2|
2,0,7.6|
2,1,3.7|
];
constraint_x8_x5=[
0,1,3.2|
0,2,3.2|
1,0,5.8|
1,2,3.4|
2,0,9|
2,1,5.2|
];
constraint_x8_x6=[
0,1,4.9|
0,2,0.5|
1,0,0.48|
1,2,5|
2,0,8.9|
2,1,8.3|
];
constraint_x8_x7=[
0,1,2.3|
0,2,2.1|
1,0,5.5|
1,2,6.2|
2,0,7.3|
2,1,8.4|
];
constraint_x9_x1=[
0,1,8.9|
0,2,1.3|
1,0,8.5|
1,2,8.1|
2,0,7.7|
2,1,8.7|
];
constraint_x9_x2=[
0,1,7.6|
0,2,4.3|
1,0,5.3|
1,2,9.4|
2,0,7.3|
2,1,3.7|
];
constraint_x9_x6=[
0,1,0.87|
0,2,0.19|
1,0,6.3|
1,2,4.3|
2,0,7.1|
2,1,7.5|
];
constraint_x9_x7=[
0,1,1.7|
0,2,4.1|
1,0,0.48|
1,2,1|
2,0,3.4|
2,1,9.9|
];
constraint_x9_x8=[
0,1,8.8|
0,2,3.3|
1,0,9.5|
1,2,9.7|
2,0,7.3|
2,1,8|
];
constraint_x10_x1=[
0,1,4.2|
0,2,6.5|
1,0,2.2|
1,2,2.3|
2,0,9.4|
2,1,8.5|
];
constraint_x10_x2=[
0,1,6.8|
0,2,5|
1,0,3.5|
1,2,5.9|
2,0,4.8|
2,1,1.7|
];
constraint_x10_x3=[
0,1,5.1|
0,2,3.9|
1,0,1.9|
1,2,5.6|
2,0,6.6|
2,1,8.4|
];
constraint_x10_x4=[
0,1,6|
0,2,3.9|
1,0,4.6|
1,2,9.6|
2,0,0.45|
2,1,1|
];
constraint_x11_x1=[
0,1,5|
0,2,9.1|
1,0,0.64|
1,2,1.9|
2,0,9.4|
2,1,9.7|
];
constraint_x11_x2=[
0,1,4.8|
0,2,4.8|
1,0,6.4|
1,2,3.4|
2,0,6.8|
2,1,3.9|
];
constraint_x11_x6=[
0,1,1.7|
0,2,8.2|
1,0,9.1|
1,2,3.3|
2,0,8.8|
2,1,9.3|
];
constraint_x11_x7=[
0,1,7.8|
0,2,5.5|
1,0,9.4|
1,2,3.6|
2,0,3.2|
2,1,5|
];
constraint_x11_x8=[
0,1,3.9|
0,2,2.9|
1,0,4.6|
1,2,6.8|
2,0,6.9|
2,1,4.8|
];
constraint_x11_x10=[
0,1,2.9|
0,2,0.62|
1,0,0.5|
1,2,8.2|
2,0,4.7|
2,1,3.2|
];
constraint_x12_x1=[
0,1,4.8|
0,2,6.9|
1,0,3.7|
1,2,1.8|
2,0,1.4|
2,1,5.8|
];
constraint_x12_x2=[
0,1,5.3|
0,2,3.4|
1,0,8|
1,2,5.5|
2,0,9.6|
2,1,7.8|
];
constraint_x12_x6=[
0,1,2.7|
0,2,5.1|
1,0,8.2|
1,2,2.8|
2,0,1.6|
2,1,0.79|
];
constraint_x12_x8=[
0,1,9.8|
0,2,5|
1,0,8.2|
1,2,3.1|
2,0,6.8|
2,1,1|
];
constraint_x12_x9=[
0,1,0.95|
0,2,5.7|
1,0,8.2|
1,2,9.2|
2,0,2.6|
2,1,7.2|
];
constraint_x12_x10=[
0,1,6.4|
0,2,4.1|
1,0,2.6|
1,2,6.3|
2,0,9.4|
2,1,1.4|
];
constraint_x12_x11=[
0,1,8.8|
0,2,8.3|
1,0,6.8|
1,2,1.6|
2,0,4.6|
2,1,7.7|
];
constraint_x14_x3=[
0,1,2.7|
0,2,8.4|
1,0,0.89|
1,2,3.9|
2,0,7.8|
2,1,2.6|
];
constraint_x14_x5=[
0,1,9.8|
0,2,4.3|
1,0,2.4|
1,2,7.8|
2,0,7.1|
2,1,0.98|
];
constraint_x14_x6=[
0,1,7.4|
0,2,1.8|
1,0,2.8|
1,2,5.8|
2,0,4.2|
2,1,8.4|
];
constraint_x14_x9=[
0,1,2.6|
0,2,6.5|
1,0,5|
1,2,6.6|
2,0,4.6|
2,1,4|
];
constraint_x14_x10=[
0,1,9.4|
0,2,4.6|
1,0,2.5|
1,2,5.2|
2,0,5.4|
2,1,2.7|
];
constraint_x14_x11=[
0,1,4.7|
0,2,2.6|
1,0,7.3|
1,2,2.1|
2,0,5.2|
2,1,9.8|
];
constraint_x14_x12=[
0,1,7.1|
0,2,2.9|
1,0,6.6|
1,2,2|
2,0,8.2|
2,1,6.2|
];
constraint_x14_x13=[
0,1,9.1|
0,2,5.6|
1,0,3.9|
1,2,8.1|
2,0,1.4|
2,1,3.7|
];
constraint_x15_x1=[
0,1,3.1|
0,2,6|
1,0,3|
1,2,6.7|
2,0,1.9|
2,1,0.32|
];
constraint_x15_x3=[
0,1,0.14|
0,2,9.7|
1,0,1.4|
1,2,2|
2,0,7.8|
2,1,7.1|
];
constraint_x15_x5=[
0,1,0.14|
0,2,2|
1,0,8.3|
1,2,1.6|
2,0,4|
2,1,5.5|
];
constraint_x15_x6=[
0,1,1.1|
0,2,5.4|
1,0,7.8|
1,2,6.2|
2,0,1.1|
2,1,1.6|
];
constraint_x15_x7=[
0,1,0.97|
0,2,2.2|
1,0,1.1|
1,2,9.6|
2,0,5.7|
2,1,7.9|
];
constraint_x15_x8=[
0,1,3.4|
0,2,8.2|
1,0,5.1|
1,2,3.4|
2,0,1.7|
2,1,4.6|
];
constraint_x15_x10=[
0,1,8.1|
0,2,2.3|
1,0,1.1|
1,2,4.1|
2,0,6.8|
2,1,0.64|
];
constraint_x15_x11=[
0,1,4.5|
0,2,2.7|
1,0,3.1|
1,2,6.6|
2,0,8.6|
2,1,7.7|
];
constraint_x15_x14=[
0,1,4.4|
0,2,2.9|
1,0,9.9|
1,2,1.1|
2,0,7.5|
2,1,0.19|
];
constraint_x1_y1=[
0,0,6.7|
0,1,4.9|
0,2,8|
1,0,0.79|
1,1,0.63|
1,2,0.83|
2,0,4.1|
2,1,5.8|
2,2,6.9|
];
constraint_x2_y2=[
0,0,8.8|
0,1,4.4|
0,2,2.6|
1,0,0.19|
1,1,2.5|
1,2,6.5|
2,0,4.2|
2,1,8.1|
2,2,0.032|
];
constraint_x3_y3=[
0,0,5.2|
0,1,5.3|
0,2,8.9|
1,0,1.7|
1,1,5.7|
1,2,9.1|
2,0,4.2|
2,1,4.7|
2,2,8|
];
initial_distribution_y1=[0.16,0.39,0.44];
initial_distribution_y2=[0.57,0.16,0.27];
initial_distribution_y3=[0.23,0.21,0.56];
transition_y1=[
0.28,0.26,0.46|
0.42,0.49,0.088|
0.37,0.39,0.24|
];
transition_y2=[
0.37,0.45,0.18|
0.37,0.28,0.35|
0.53,0.078,0.4|
];
transition_y3=[
0.6,0.1,0.29|
0.41,0.23,0.35|
0.31,0.6,0.093|
];
